1175752
32,95,6,30,61,85,43,44,20,63,3,83,25,16,107,94,46,81,2,51,84,59,29,52,34,82,1,101,98,35,5,45,90,24,109,10,64,22,15,23,79,67,4,103,56,92,74,48,80,17,53,100,21,13,105,99,76,73,62,87,93,96,19,42,60,106,108,78,33,55,68,40,8,28,36,12,65,88,7,18,50,71,47,102,54,58,104,97,91,89,11,49,31,39,14,70,69,27,86,75,57,72,38,41,26,37,66,77,9